% project_assignment_1.dzn

n = 10; % 20 students to consider
p = 7; % topics
l = 7;

projectToLecturer = [4, 5, 7, 2, 1, 3, 6];

% student 1 ranks project 1 at 4, project 2 at 2, etc. 
studentProjectRanks = [|7, 5, 1, 2, 3, 6, 4|
                        1, 6, 3, 2, 4, 7, 5|
                        3, 1, 7, 2, 4, 6, 5|
                        6, 2, 5, 1, 4, 7, 3|
                        4, 2, 3, 1, 5, 6, 7|
                        5, 6, 7, 1, 2, 3, 4|
                        7, 1, 3, 2, 6, 4, 5|
                        3, 4, 5, 6, 7, 1, 2|
                        4, 5, 6, 7, 1, 2, 3|
                        2, 3, 4, 5, 6, 7, 1|];
  
% some default values for now
minPerLecturer = 1; maxPerLecturer = 3;

% some default values for now
minPerProject = 1; maxPerProject= 3;
